32      4       
11      16      13      16      
0       0       0       0       0       1       2       
9       0       3       0       1       1       3       
4       0       8       7       0       2       4       8       
5       0       7       0       2       1       5       
6       0       0       4       1       2       6       7       
4       3       0       3       0       2       9       12      
5       6       6       0       0       1       10      
10      1       5       0       0       1       9       
4       0       1       6       0       2       11      13      
3       1       0       0       7       2       11      13      
4       0       0       7       7       3       14      15      17      
7       1       0       7       0       3       14      15      17      
5       7       0       0       11      1       14      
2       3       2       0       0       3       16      18      24      
5       5       1       0       0       2       16      24      
3       0       1       0       1       3       19      20      22      
10      0       0       6       2       3       19      20      23      
5       4       0       0       1       3       20      22      23      
10      0       7       3       0       1       21      
5       1       0       6       0       1       25      
8       4       10      0       0       1       25      
5       0       2       1       0       1       25      
5       0       0       1       1       1       25      
3       0       13      0       9       1       25      
1       3       0       0       15      2       26      27      
1       0       1       1       0       2       28      29      
4       1       0       2       0       1       28      
2       8       0       0       1       2       30      31      
9       2       5       0       0       1       30      
6       0       0       1       12      1       32      
8       0       0       4       1       1       32      
0       0       0       0       0       0       
